; Copyright (c) 2026 The RIINA Authors. All rights reserved.
; Copyright (c) 2026 The RIINA Authors.
; Auto-generated from 02_FORMAL/coq/domains/mobile_os/AnimationSystem.v (22 assertions)
; Generated by scripts/generate-full-stack.py
; Module: AnimationSystem

(set-logic ALL)
(set-option :produce-models true)

; AnimationType (matches Coq: Inductive AnimationType)
(declare-datatypes ((AnimationType 0)) (((ImplicitAnim) (ExplicitAnim) (SpringAnim) (KeyframeAnim) (TransitionAnim) (Linear) (EaseIn) (EaseOut) (EaseInOut) (CustomCubic))))

; SpringParams (matches Coq: Record SpringParams)
(declare-datatypes ((SpringParams 0))
  (((mk-spring_params (spring_stiffness Int) (spring_damping Int) (spring_mass Int) (spring_initial_pos Position) (spring_target_pos Position)))))

; SpringAnimation (matches Coq: Record SpringAnimation)
(declare-datatypes ((SpringAnimation 0))
  (((mk-spring_animation (spring_params SpringParams) (spring_positions list) (spring_velocities list) (spring_duration Time)))))

; AnimationControl (matches Coq: Record AnimationControl)
(declare-datatypes ((AnimationControl 0))
  (((mk-animation_control (anim_type AnimationType) (anim_speed Int) (anim_reversed Bool) (anim_autoreverses Bool) (anim_repeat_count Int) (anim_current_repeat Int) (anim_fill_mode Int) (anim_delegate_notified Bool) (anim_removed_cleanly Bool)))))

; AnimationGroup (matches Coq: Record AnimationGroup)
(declare-datatypes ((AnimationGroup 0))
  (((mk-animation_group (ag_animations list) (ag_synchronized Bool) (ag_duration Int)))))

; LayerAnimation (matches Coq: Record LayerAnimation)
(declare-datatypes ((LayerAnimation 0))
  (((mk-layer_animation (la_property Int) (la_gpu_accelerated Bool) (la_from_value Int) (la_to_value Int) (la_timing TimingFunction)))))

; Keyframe (matches Coq: Record Keyframe)
(declare-datatypes ((Keyframe 0))
  (((mk-keyframe (kf_time Int) (kf_value Int) (kf_timing TimingFunction)))))

; Frame (matches Coq: Record Frame)
(declare-datatypes ((Frame 0))
  (((mk-frame (frame_render_time Int) (frame_id Int)))))

; Time (matches Coq: Definition Time)
(define-fun Time () Type nat)

; Position (matches Coq: Definition Position)
(define-fun Position () Type nat)

; Velocity (matches Coq: Definition Velocity)
(define-fun Velocity () Type nat)

; positions_smooth (matches Coq: Definition positions_smooth)
(define-fun positions_smooth () Prop true)

; second_derivative_continuous (matches Coq: Definition second_derivative_continuous)
(define-fun second_derivative_continuous () Prop (positions_smooth positions))

; well_formed_spring (matches Coq: Definition well_formed_spring)
(define-fun well_formed_spring ((sa SpringAnimation)) Prop
  true)

; reaches_target (matches Coq: Definition reaches_target)
(define-fun reaches_target ((sa SpringAnimation)) Prop
  true)

; frame_budget_60hz (matches Coq: Definition frame_budget_60hz)
(define-fun frame_budget_60hz () Int 16667)

; frame_budget_120hz (matches Coq: Definition frame_budget_120hz)
(define-fun frame_budget_120hz () Int 8333)

; meets_frame_budget (matches Coq: Definition meets_frame_budget)
(define-fun meets_frame_budget ((f Frame)) Prop
  true)

; well_formed_anim_control (matches Coq: Definition well_formed_anim_control)
(define-fun well_formed_anim_control ((ac AnimationControl)) Prop
  true)

; well_formed_anim_group (matches Coq: Definition well_formed_anim_group)
(define-fun well_formed_anim_group ((ag AnimationGroup)) Prop
  true)

; well_formed_layer_anim (matches Coq: Definition well_formed_layer_anim)
(define-fun well_formed_layer_anim ((la LayerAnimation)) Prop
  true)

; keyframe_in_range (matches Coq: Definition keyframe_in_range)
(define-fun keyframe_in_range ((kf Keyframe)) Prop
  true)

; spring_converges (matches Coq: Definition spring_converges)
(define-fun spring_converges ((sa SpringAnimation)) Prop
  true)

; nth_error_In_bounds (matches Coq: Lemma nth_error_In_bounds)
(assert (= true true)) ; nth_error_In_bounds [untranslatable]

; spring_physics_accurate (matches Coq: Theorem spring_physics_accurate)
(assert (= true true)) ; spring_physics_accurate [untranslatable]

; animation_mathematically_smooth (matches Coq: Theorem animation_mathematically_smooth)
(assert (= true true)) ; animation_mathematically_smooth [untranslatable]

; spring_has_valid_duration (matches Coq: Theorem spring_has_valid_duration)
(assert (= true true)) ; spring_has_valid_duration [untranslatable]

; position_velocity_match (matches Coq: Theorem position_velocity_match)
(assert (= true true)) ; position_velocity_match [untranslatable]

; nth_error_Some_length (matches Coq: Lemma nth_error_Some_length)
(assert (= true true)) ; nth_error_Some_length [untranslatable]

; animation_frame_budget_met (matches Coq: Theorem animation_frame_budget_met)
(assert (= true true)) ; animation_frame_budget_met [untranslatable]

; implicit_animation_smooth (matches Coq: Theorem implicit_animation_smooth)
(assert (= true true)) ; implicit_animation_smooth [untranslatable]

; explicit_animation_controllable (matches Coq: Theorem explicit_animation_controllable)
(assert (= true true)) ; explicit_animation_controllable [untranslatable]

; animation_group_synchronized (matches Coq: Theorem animation_group_synchronized)
(assert (= true true)) ; animation_group_synchronized [untranslatable]

; layer_animation_gpu_accelerated (matches Coq: Theorem layer_animation_gpu_accelerated)
(assert (= true true)) ; layer_animation_gpu_accelerated [untranslatable]

; animation_timing_precise (matches Coq: Theorem animation_timing_precise)
(assert (= true true)) ; animation_timing_precise [untranslatable]

; keyframe_values_interpolated (matches Coq: Theorem keyframe_values_interpolated)
(assert (= true true)) ; keyframe_values_interpolated [untranslatable]

; spring_animation_converges (matches Coq: Theorem spring_animation_converges)
(assert (= true true)) ; spring_animation_converges [untranslatable]

; transition_animation_reversible (matches Coq: Theorem transition_animation_reversible)
(assert (forall ((ac AnimationControl)) (=> (= (anim_reversed ac) true) (= (anim_reversed ac) true)))) ; transition_animation_reversible

; animation_delegate_notified (matches Coq: Theorem animation_delegate_notified)
(assert (forall ((ac AnimationControl)) (=> (= (anim_delegate_notified ac) true) (= (anim_delegate_notified ac) true)))) ; animation_delegate_notified

; animation_removed_cleanly (matches Coq: Theorem animation_removed_cleanly)
(assert (forall ((ac AnimationControl)) (=> (= (anim_removed_cleanly ac) true) (= (anim_removed_cleanly ac) true)))) ; animation_removed_cleanly

; animation_speed_adjustable (matches Coq: Theorem animation_speed_adjustable)
(assert (= true true)) ; animation_speed_adjustable [untranslatable]

; animation_fill_mode_correct (matches Coq: Theorem animation_fill_mode_correct)
(assert (= true true)) ; animation_fill_mode_correct [untranslatable]

; animation_autoreverses_symmetric (matches Coq: Theorem animation_autoreverses_symmetric)
(assert (= true true)) ; animation_autoreverses_symmetric [untranslatable]

; animation_repeat_count_honored (matches Coq: Theorem animation_repeat_count_honored)
(assert (= true true)) ; animation_repeat_count_honored [untranslatable]

; animation_group_non_empty (matches Coq: Theorem animation_group_non_empty)
(assert (= true true)) ; animation_group_non_empty [untranslatable]

; Verify all assertions are satisfiable
(check-sat)
(exit)
